Nodes = {"Gdansk", "Bydgoszcz", "Kolobrzeg", "Katowice", "Krakow", "Bialystok", "Lodz", "Poznan", "Rzeszow", "Szczecin", "Warsaw", "Wroclaw"};
Arcs = {<"Gdansk","Bydgoszcz",10,2,0>, <"Gdansk","Kolobrzeg",10,6,1>, <"Gdansk","Katowice",10,15,0>, <"Gdansk","Krakow",10,19,0>, <"Gdansk","Bialystok",10,21,1>, <"Gdansk","Lodz",10,7,0>, <"Gdansk","Poznan",10,6,0>, <"Gdansk","Rzeszow",10,29,0>, <"Gdansk","Szczecin",10,17,0>, <"Gdansk","Warsaw",10,10,1>, <"Gdansk","Wroclaw",10,13,0>, <"Bydgoszcz","Gdansk",10,2,0>, <"Bydgoszcz","Kolobrzeg",10,4,1>, <"Bydgoszcz","Katowice",10,9,0>, <"Bydgoszcz","Krakow",10,13,0>, <"Bydgoszcz","Bialystok",10,27,0>, <"Bydgoszcz","Lodz",10,4,0>, <"Bydgoszcz","Poznan",10,2,1>, <"Bydgoszcz","Rzeszow",10,26,0>, <"Bydgoszcz","Szczecin",10,12,0>, <"Bydgoszcz","Warsaw",10,10,1>, <"Bydgoszcz","Wroclaw",10,5,0>, <"Kolobrzeg","Gdansk",10,6,1>, <"Kolobrzeg","Bydgoszcz",10,4,1>, <"Kolobrzeg","Katowice",10,23,0>, <"Kolobrzeg","Krakow",10,31,0>, <"Kolobrzeg","Bialystok",10,50,0>, <"Kolobrzeg","Lodz",10,17,0>, <"Kolobrzeg","Poznan",10,4,0>, <"Kolobrzeg","Rzeszow",10,51,0>, <"Kolobrzeg","Szczecin",10,3,1>, <"Kolobrzeg","Warsaw",10,28,0>, <"Kolobrzeg","Wroclaw",10,10,0>, <"Katowice","Gdansk",10,15,0>, <"Katowice","Bydgoszcz",10,9,0>, <"Katowice","Kolobrzeg",10,23,0>, <"Katowice","Krakow",10,1,1>, <"Katowice","Bialystok",10,26,0>, <"Katowice","Lodz",10,2,1>, <"Katowice","Poznan",10,8,0>, <"Katowice","Rzeszow",10,10,0>, <"Katowice","Szczecin",10,28,0>, <"Katowice","Warsaw",10,8,0>, <"Katowice","Wroclaw",10,4,1>, <"Krakow","Gdansk",10,19,0>, <"Krakow","Bydgoszcz",10,13,0>, <"Krakow","Kolobrzeg",10,31,0>, <"Krakow","Katowice",10,1,1>, <"Krakow","Bialystok",10,21,0>, <"Krakow","Lodz",10,3,0>, <"Krakow","Poznan",10,15,0>, <"Krakow","Rzeszow",10,4,1>, <"Krakow","Szczecin",10,40,0>, <"Krakow","Warsaw",10,6,1>, <"Krakow","Wroclaw",10,10,0>, <"Bialystok","Gdansk",10,21,1>, <"Bialystok","Bydgoszcz",10,27,0>, <"Bialystok","Kolobrzeg",10,50,0>, <"Bialystok","Katowice",10,26,0>, <"Bialystok","Krakow",10,21,0>, <"Bialystok","Lodz",10,16,0>, <"Bialystok","Poznan",10,40,0>, <"Bialystok","Rzeszow",10,11,1>, <"Bialystok","Szczecin",10,74,0>, <"Bialystok","Warsaw",10,5,1>, <"Bialystok","Wroclaw",10,42,0>, <"Lodz","Gdansk",10,7,0>, <"Lodz","Bydgoszcz",10,4,0>, <"Lodz","Kolobrzeg",10,17,0>, <"Lodz","Katowice",10,2,1>, <"Lodz","Krakow",10,3,0>, <"Lodz","Bialystok",10,16,0>, <"Lodz","Poznan",10,7,0>, <"Lodz","Rzeszow",10,9,0>, <"Lodz","Szczecin",10,27,0>, <"Lodz","Warsaw",10,3,1>, <"Lodz","Wroclaw",10,7,1>, <"Poznan","Gdansk",10,6,0>, <"Poznan","Bydgoszcz",10,2,1>, <"Poznan","Kolobrzeg",10,4,0>, <"Poznan","Katowice",10,8,0>, <"Poznan","Krakow",10,15,0>, <"Poznan","Bialystok",10,40,0>, <"Poznan","Lodz",10,7,0>, <"Poznan","Rzeszow",10,32,0>, <"Poznan","Szczecin",10,6,1>, <"Poznan","Warsaw",10,18,0>, <"Poznan","Wroclaw",10,2,1>, <"Rzeszow","Gdansk",10,29,0>, <"Rzeszow","Bydgoszcz",10,26,0>, <"Rzeszow","Kolobrzeg",10,51,0>, <"Rzeszow","Katowice",10,10,0>, <"Rzeszow","Krakow",10,4,1>, <"Rzeszow","Bialystok",10,11,1>, <"Rzeszow","Lodz",10,9,0>, <"Rzeszow","Poznan",10,32,0>, <"Rzeszow","Szczecin",10,66,0>, <"Rzeszow","Warsaw",10,6,0>, <"Rzeszow","Wroclaw",10,26,0>, <"Szczecin","Gdansk",10,17,0>, <"Szczecin","Bydgoszcz",10,12,0>, <"Szczecin","Kolobrzeg",10,3,1>, <"Szczecin","Katowice",10,28,0>, <"Szczecin","Krakow",10,40,0>, <"Szczecin","Bialystok",10,74,0>, <"Szczecin","Lodz",10,27,0>, <"Szczecin","Poznan",10,6,1>, <"Szczecin","Rzeszow",10,66,0>, <"Szczecin","Warsaw",10,44,0>, <"Szczecin","Wroclaw",10,11,0>, <"Warsaw","Gdansk",10,10,1>, <"Warsaw","Bydgoszcz",10,10,1>, <"Warsaw","Kolobrzeg",10,28,0>, <"Warsaw","Katowice",10,8,0>, <"Warsaw","Krakow",10,6,1>, <"Warsaw","Bialystok",10,5,1>, <"Warsaw","Lodz",10,3,1>, <"Warsaw","Poznan",10,18,0>, <"Warsaw","Rzeszow",10,6,0>, <"Warsaw","Szczecin",10,44,0>, <"Warsaw","Wroclaw",10,18,0>, <"Wroclaw","Gdansk",10,13,0>, <"Wroclaw","Bydgoszcz",10,5,0>, <"Wroclaw","Kolobrzeg",10,10,0>, <"Wroclaw","Katowice",10,4,1>, <"Wroclaw","Krakow",10,10,0>, <"Wroclaw","Bialystok",10,42,0>, <"Wroclaw","Lodz",10,7,1>, <"Wroclaw","Poznan",10,2,1>, <"Wroclaw","Rzeszow",10,26,0>, <"Wroclaw","Szczecin",10,11,0>, <"Wroclaw","Warsaw",10,18,0>};
Demands = {<"Gdansk","Bydgoszcz",10>, <"Gdansk","Kolobrzeg",20>, <"Gdansk","Katowice",30>, <"Gdansk","Krakow",40>, <"Gdansk","Bialystok",50>, <"Gdansk","Lodz",60>, <"Gdansk","Poznan",70>, <"Gdansk","Rzeszow",80>, <"Gdansk","Szczecin",90>, <"Gdansk","Warsaw",100>, <"Gdansk","Wroclaw",110>, <"Bydgoszcz","Gdansk",10>, <"Bydgoszcz","Kolobrzeg",10>, <"Bydgoszcz","Katowice",20>, <"Bydgoszcz","Krakow",30>, <"Bydgoszcz","Bialystok",40>, <"Bydgoszcz","Lodz",50>, <"Bydgoszcz","Poznan",60>, <"Bydgoszcz","Rzeszow",70>, <"Bydgoszcz","Szczecin",80>, <"Bydgoszcz","Warsaw",90>, <"Bydgoszcz","Wroclaw",100>, <"Kolobrzeg","Gdansk",20>, <"Kolobrzeg","Bydgoszcz",10>, <"Kolobrzeg","Katowice",10>, <"Kolobrzeg","Krakow",20>, <"Kolobrzeg","Bialystok",30>, <"Kolobrzeg","Lodz",40>, <"Kolobrzeg","Poznan",50>, <"Kolobrzeg","Rzeszow",60>, <"Kolobrzeg","Szczecin",70>, <"Kolobrzeg","Warsaw",80>, <"Kolobrzeg","Wroclaw",90>, <"Katowice","Gdansk",30>, <"Katowice","Bydgoszcz",20>, <"Katowice","Kolobrzeg",10>, <"Katowice","Krakow",10>, <"Katowice","Bialystok",20>, <"Katowice","Lodz",30>, <"Katowice","Poznan",40>, <"Katowice","Rzeszow",50>, <"Katowice","Szczecin",60>, <"Katowice","Warsaw",70>, <"Katowice","Wroclaw",80>, <"Krakow","Gdansk",40>, <"Krakow","Bydgoszcz",30>, <"Krakow","Kolobrzeg",20>, <"Krakow","Katowice",10>, <"Krakow","Bialystok",10>, <"Krakow","Lodz",20>, <"Krakow","Poznan",30>, <"Krakow","Rzeszow",40>, <"Krakow","Szczecin",50>, <"Krakow","Warsaw",60>, <"Krakow","Wroclaw",70>, <"Bialystok","Gdansk",50>, <"Bialystok","Bydgoszcz",40>, <"Bialystok","Kolobrzeg",30>, <"Bialystok","Katowice",20>, <"Bialystok","Krakow",10>, <"Bialystok","Lodz",10>, <"Bialystok","Poznan",20>, <"Bialystok","Rzeszow",30>, <"Bialystok","Szczecin",40>, <"Bialystok","Warsaw",50>, <"Bialystok","Wroclaw",60>, <"Lodz","Gdansk",60>, <"Lodz","Bydgoszcz",50>, <"Lodz","Kolobrzeg",40>, <"Lodz","Katowice",30>, <"Lodz","Krakow",20>, <"Lodz","Bialystok",10>, <"Lodz","Poznan",10>, <"Lodz","Rzeszow",20>, <"Lodz","Szczecin",30>, <"Lodz","Warsaw",40>, <"Lodz","Wroclaw",50>, <"Poznan","Gdansk",70>, <"Poznan","Bydgoszcz",60>, <"Poznan","Kolobrzeg",50>, <"Poznan","Katowice",40>, <"Poznan","Krakow",30>, <"Poznan","Bialystok",20>, <"Poznan","Lodz",10>, <"Poznan","Rzeszow",10>, <"Poznan","Szczecin",20>, <"Poznan","Warsaw",30>, <"Poznan","Wroclaw",40>, <"Rzeszow","Gdansk",80>, <"Rzeszow","Bydgoszcz",70>, <"Rzeszow","Kolobrzeg",60>, <"Rzeszow","Katowice",50>, <"Rzeszow","Krakow",40>, <"Rzeszow","Bialystok",30>, <"Rzeszow","Lodz",20>, <"Rzeszow","Poznan",10>, <"Rzeszow","Szczecin",10>, <"Rzeszow","Warsaw",20>, <"Rzeszow","Wroclaw",30>, <"Szczecin","Gdansk",90>, <"Szczecin","Bydgoszcz",80>, <"Szczecin","Kolobrzeg",70>, <"Szczecin","Katowice",60>, <"Szczecin","Krakow",50>, <"Szczecin","Bialystok",40>, <"Szczecin","Lodz",30>, <"Szczecin","Poznan",20>, <"Szczecin","Rzeszow",10>, <"Szczecin","Warsaw",10>, <"Szczecin","Wroclaw",20>, <"Warsaw","Gdansk",100>, <"Warsaw","Bydgoszcz",90>, <"Warsaw","Kolobrzeg",80>, <"Warsaw","Katowice",70>, <"Warsaw","Krakow",60>, <"Warsaw","Bialystok",50>, <"Warsaw","Lodz",40>, <"Warsaw","Poznan",30>, <"Warsaw","Rzeszow",20>, <"Warsaw","Szczecin",10>, <"Warsaw","Wroclaw",10>, <"Wroclaw","Gdansk",110>, <"Wroclaw","Bydgoszcz",100>, <"Wroclaw","Kolobrzeg",90>, <"Wroclaw","Katowice",80>, <"Wroclaw","Krakow",70>, <"Wroclaw","Bialystok",60>, <"Wroclaw","Lodz",50>, <"Wroclaw","Poznan",40>, <"Wroclaw","Rzeszow",30>, <"Wroclaw","Szczecin",20>, <"Wroclaw","Warsaw",10>};
